     Program PWSCF v.6.7MaX starts on  1Nov2021 at 20:29:58

     R & G space division:  proc/nbgrp/npool/nimage =       8
     Waiting for input...
     Reading input from standard input

     Current dimensions of program PWSCF are:
     Max number of different atomic species (ntypx) = 10
     Max number of k-points (npk) =  40000
     Max angular momentum in pseudopotentials (lmaxx) =  3
     file B.pbe-n-rrkjus_psl.1.0.0.UPF: wavefunction(s)  2S renormalized

     bravais-lattice index     =            8
     lattice parameter (alat)  =      31.5316  a.u.
     unit-cell volume          =   10973.0920 (a.u.)^3
     number of atoms/cell      =           65
     number of atomic types    =            2
     number of electrons       =       208.00
     number of Kohn-Sham states=          125
     kinetic-energy cutoff     =      35.0000  Ry
     charge density cutoff     =     240.0000  Ry
     scf convergence threshold =      1.0E-06
     mixing beta               =       0.1000
     number of iterations used =            8  plain     mixing
     Exchange-correlation= PBE
                           (   1   4   3   4   0   0   0)

     celldm(1)=  31.531592  celldm(2)=   0.700038  celldm(3)=   0.499999
     celldm(4)=   0.000000  celldm(5)=   0.000000  celldm(6)=   0.000000

     crystal axes: (cart. coord. in units of alat)
               a(1) = (   1.000000   0.000000   0.000000 )
               a(2) = (   0.000000   0.700038   0.000000 )
               a(3) = (   0.000000   0.000000   0.499999 )

     reciprocal axes: (cart. coord. in units 2 pi/alat)
               b(1) = (  1.000000  0.000000  0.000000 )
               b(2) = (  0.000000  1.428493  0.000000 )
               b(3) = (  0.000000  0.000000  2.000002 )

     PseudoPot. # 1 for B  read from file:
     ./B.pbe-n-rrkjus_psl.1.0.0.UPF
     MD5 check sum: 21bc42b8719306ef1fe0545c7dabf1c6
     Pseudo is Ultrasoft + core correction, Zval =  3.0
     Generated using &quot;atomic&quot; code by A. Dal Corso  v.6.3MaX
     Using radial grid of 1059 points,  4 beta functions with:
                l(1) =   0
                l(2) =   0
                l(3) =   1
                l(4) =   1
     Q(r) pseudized with 0 coefficients

     PseudoPot. # 2 for Fe read from file:
     ./Fe.pbe-spn-rrkjus_psl.1.0.0.UPF
     MD5 check sum: 72ea77fed8e64ab3a2ccf2804dfc1862
     Pseudo is Ultrasoft + core correction, Zval = 16.0
     Generated using &quot;atomic&quot; code by A. Dal Corso  v.6.3
     Using radial grid of 1191 points,  6 beta functions with:
                l(1) =   0
                l(2) =   0
                l(3) =   1
                l(4) =   1
                l(5) =   2
                l(6) =   2
     Q(r) pseudized with 0 coefficients

     atomic species   valence    mass     pseudopotential
        B              3.00    10.81100     B ( 1.00)
        Fe            16.00    55.84500     Fe( 1.00)

     Starting magnetic structure
     atomic species   magnetization
        B            1.000
        Fe           0.000

     No symmetry found

                                    s                        frac. trans.

      isym =  1     identity

 cryst.   s( 1) = (     1          0          0      )
                  (     0          1          0      )
                  (     0          0          1      )

 cart.    s( 1) = (  1.0000000  0.0000000  0.0000000 )
                  (  0.0000000  1.0000000  0.0000000 )
                  (  0.0000000  0.0000000  1.0000000 )

     point group C_1 (1)
     there are  1 classes
     the character table:

       E
A      1.00

     the symmetry operations in each class and the name of the first element:

     E        1
          identity

   Cartesian axes

     site n.     atom                  positions (alat units)
         1           B   tau(   1) = (   0.6046300   0.5269679   0.2439047  )
         2           B   tau(   2) = (   0.7026400   0.5256868   0.2515597  )
         3           B   tau(   3) = (   0.7988000   0.5243777   0.2500097  )
         4           B   tau(   4) = (   0.8979400   0.5245807   0.2508747  )
         5           B   tau(   5) = (   0.5480400   0.6120785   0.2510347  )
         6           B   tau(   6) = (   0.6490000   0.6136186   0.2506697  )
         7           B   tau(   7) = (   0.8523100   0.6127436   0.2505597  )
         8           B   tau(   8) = (   0.9518900   0.6128556   0.2494897  )
         9           B   tau(   9) = (   0.6008800   0.0005600   0.2526747  )
        10           B   tau(  10) = (   0.7015900   0.0004410   0.2462347  )
        11           B   tau(  11) = (   0.7981200   0.0000000   0.2490947  )
        12           B   tau(  12) = (   0.8974300   0.0000000   0.2493897  )
        13           B   tau(  13) = (   0.5481000   0.0880088   0.2509697  )
        14           B   tau(  14) = (   0.6489100   0.0867628   0.2511647  )
        15           B   tau(  15) = (   0.8525700   0.0880648   0.2516297  )
        16           B   tau(  16) = (   0.9518600   0.0884288   0.2487697  )
        17           B   tau(  17) = (   0.6043900   0.1741065   0.2480947  )
        18           B   tau(  18) = (   0.7027100   0.1755626   0.2489247  )
        19           B   tau(  19) = (   0.7987900   0.1748416   0.2519347  )
        20           B   tau(  20) = (   0.8978500   0.1748486   0.2494047  )
        21           B   tau(  21) = (   0.5483800   0.2592102   0.2509597  )
        22           B   tau(  22) = (   0.6499300   0.2613243   0.2433147  )
        23           B   tau(  23) = (   0.8521800   0.2629484   0.2496547  )
        24           B   tau(  24) = (   0.9522300   0.2632914   0.2505747  )
        25           B   tau(  25) = (   0.6047800   0.3500402   0.2567347  )
        26           B   tau(  26) = (   0.7028400   0.3499562   0.2506947  )
        27           B   tau(  27) = (   0.7986700   0.3493961   0.2491347  )
        28           B   tau(  28) = (   0.8985000   0.3498862   0.2495047  )
        29           B   tau(  29) = (   0.5482100   0.4423402   0.2467847  )
        30           B   tau(  30) = (   0.6495200   0.4386580   0.2475147  )
        31           B   tau(  31) = (   0.8526500   0.4378180   0.2489247  )
        32           B   tau(  32) = (   0.9521200   0.4375100   0.2516497  )
        33           B   tau(  33) = (   0.1019200   0.5246157   0.2508797  )
        34           B   tau(  34) = (   0.2011300   0.5243567   0.2500197  )
        35           B   tau(  35) = (   0.2973100   0.5257008   0.2515997  )
        36           B   tau(  36) = (   0.3953500   0.5269539   0.2437447  )
        37           B   tau(  37) = (   0.0480200   0.6128906   0.2494547  )
        38           B   tau(  38) = (   0.1475800   0.6127436   0.2505597  )
        39           B   tau(  39) = (   0.3509700   0.6135766   0.2508597  )
        40           B   tau(  40) = (   0.4519300   0.6120855   0.2509347  )
        41           B   tau(  41) = (   0.1024700   0.0000000   0.2494647  )
        42           B   tau(  42) = (   0.2018000   0.0000000   0.2491847  )
        43           B   tau(  43) = (   0.2983300   0.0004200   0.2464197  )
        44           B   tau(  44) = (   0.3990100   0.0005250   0.2525147  )
        45           B   tau(  45) = (   0.0480400   0.0884008   0.2487797  )
        46           B   tau(  46) = (   0.1473300   0.0880508   0.2515697  )
        47           B   tau(  47) = (   0.3510000   0.0867558   0.2513247  )
        48           B   tau(  48) = (   0.4518100   0.0879948   0.2508597  )
        49           B   tau(  49) = (   0.1020200   0.1748346   0.2494047  )
        50           B   tau(  50) = (   0.2010900   0.1749046   0.2518797  )
        51           B   tau(  51) = (   0.2971700   0.1755136   0.2488547  )
        52           B   tau(  52) = (   0.3955200   0.1740855   0.2479547  )
        53           B   tau(  53) = (   0.0476200   0.2632284   0.2506147  )
        54           B   tau(  54) = (   0.1477400   0.2629414   0.2496647  )
        55           B   tau(  55) = (   0.3499100   0.2612893   0.2430497  )
        56           B   tau(  56) = (   0.4515700   0.2592032   0.2505347  )
        57           B   tau(  57) = (   0.1014000   0.3498792   0.2496297  )
        58           B   tau(  58) = (   0.2011900   0.3493401   0.2491647  )
        59           B   tau(  59) = (   0.2970300   0.3499492   0.2505297  )
        60           B   tau(  60) = (   0.3951700   0.3499842   0.2554647  )
        61           B   tau(  61) = (   0.0477100   0.4375170   0.2516997  )
        62           B   tau(  62) = (   0.1471700   0.4378390   0.2488797  )
        63           B   tau(  63) = (   0.3503600   0.4386230   0.2474147  )
        64           B   tau(  64) = (   0.4516900   0.4424032   0.2463497  )
        65           Fe  tau(  65) = (   0.4998400   0.3525253   0.3055996  )

   Crystallographic axes

     site n.     atom                  positions (cryst. coord.)
         1           B   tau(   1) = (  0.6046300  0.7527700  0.4878100  )
         2           B   tau(   2) = (  0.7026400  0.7509400  0.5031200  )
         3           B   tau(   3) = (  0.7988000  0.7490700  0.5000200  )
         4           B   tau(   4) = (  0.8979400  0.7493600  0.5017500  )
         5           B   tau(   5) = (  0.5480400  0.8743500  0.5020700  )
         6           B   tau(   6) = (  0.6490000  0.8765500  0.5013400  )
         7           B   tau(   7) = (  0.8523100  0.8753000  0.5011200  )
         8           B   tau(   8) = (  0.9518900  0.8754600  0.4989800  )
         9           B   tau(   9) = (  0.6008800  0.0008000  0.5053500  )
        10           B   tau(  10) = (  0.7015900  0.0006300  0.4924700  )
        11           B   tau(  11) = (  0.7981200  0.0000000  0.4981900  )
        12           B   tau(  12) = (  0.8974300  0.0000000  0.4987800  )
        13           B   tau(  13) = (  0.5481000  0.1257200  0.5019400  )
        14           B   tau(  14) = (  0.6489100  0.1239400  0.5023300  )
        15           B   tau(  15) = (  0.8525700  0.1258000  0.5032600  )
        16           B   tau(  16) = (  0.9518600  0.1263200  0.4975400  )
        17           B   tau(  17) = (  0.6043900  0.2487100  0.4961900  )
        18           B   tau(  18) = (  0.7027100  0.2507900  0.4978500  )
        19           B   tau(  19) = (  0.7987900  0.2497600  0.5038700  )
        20           B   tau(  20) = (  0.8978500  0.2497700  0.4988100  )
        21           B   tau(  21) = (  0.5483800  0.3702800  0.5019200  )
        22           B   tau(  22) = (  0.6499300  0.3733000  0.4866300  )
        23           B   tau(  23) = (  0.8521800  0.3756200  0.4993100  )
        24           B   tau(  24) = (  0.9522300  0.3761100  0.5011500  )
        25           B   tau(  25) = (  0.6047800  0.5000300  0.5134700  )
        26           B   tau(  26) = (  0.7028400  0.4999100  0.5013900  )
        27           B   tau(  27) = (  0.7986700  0.4991100  0.4982700  )
        28           B   tau(  28) = (  0.8985000  0.4998100  0.4990100  )
        29           B   tau(  29) = (  0.5482100  0.6318800  0.4935700  )
        30           B   tau(  30) = (  0.6495200  0.6266200  0.4950300  )
        31           B   tau(  31) = (  0.8526500  0.6254200  0.4978500  )
        32           B   tau(  32) = (  0.9521200  0.6249800  0.5033000  )
        33           B   tau(  33) = (  0.1019200  0.7494100  0.5017600  )
        34           B   tau(  34) = (  0.2011300  0.7490400  0.5000400  )
        35           B   tau(  35) = (  0.2973100  0.7509600  0.5032000  )
        36           B   tau(  36) = (  0.3953500  0.7527500  0.4874900  )
        37           B   tau(  37) = (  0.0480200  0.8755100  0.4989100  )
        38           B   tau(  38) = (  0.1475800  0.8753000  0.5011200  )
        39           B   tau(  39) = (  0.3509700  0.8764900  0.5017200  )
        40           B   tau(  40) = (  0.4519300  0.8743600  0.5018700  )
        41           B   tau(  41) = (  0.1024700  0.0000000  0.4989300  )
        42           B   tau(  42) = (  0.2018000  0.0000000  0.4983700  )
        43           B   tau(  43) = (  0.2983300  0.0006000  0.4928400  )
        44           B   tau(  44) = (  0.3990100  0.0007500  0.5050300  )
        45           B   tau(  45) = (  0.0480400  0.1262800  0.4975600  )
        46           B   tau(  46) = (  0.1473300  0.1257800  0.5031400  )
        47           B   tau(  47) = (  0.3510000  0.1239300  0.5026500  )
        48           B   tau(  48) = (  0.4518100  0.1257000  0.5017200  )
        49           B   tau(  49) = (  0.1020200  0.2497500  0.4988100  )
        50           B   tau(  50) = (  0.2010900  0.2498500  0.5037600  )
        51           B   tau(  51) = (  0.2971700  0.2507200  0.4977100  )
        52           B   tau(  52) = (  0.3955200  0.2486800  0.4959100  )
        53           B   tau(  53) = (  0.0476200  0.3760200  0.5012300  )
        54           B   tau(  54) = (  0.1477400  0.3756100  0.4993300  )
        55           B   tau(  55) = (  0.3499100  0.3732500  0.4861000  )
        56           B   tau(  56) = (  0.4515700  0.3702700  0.5010700  )
        57           B   tau(  57) = (  0.1014000  0.4998000  0.4992600  )
        58           B   tau(  58) = (  0.2011900  0.4990300  0.4983300  )
        59           B   tau(  59) = (  0.2970300  0.4999000  0.5010600  )
        60           B   tau(  60) = (  0.3951700  0.4999500  0.5109300  )
        61           B   tau(  61) = (  0.0477100  0.6249900  0.5034000  )
        62           B   tau(  62) = (  0.1471700  0.6254500  0.4977600  )
        63           B   tau(  63) = (  0.3503600  0.6265700  0.4948300  )
        64           B   tau(  64) = (  0.4516900  0.6319700  0.4927000  )
        65           Fe  tau(  65) = (  0.4998400  0.5035800  0.6112000  )

     number of k points=     5  Marzari-Vanderbilt smearing, width (Ry)=  0.0020
                       cart. coord. in units 2pi/alat
        k(    1) = (   0.0000000   0.0000000   0.0000000), wk =   0.1111111
        k(    2) = (   0.0000000   0.4761644   0.0000000), wk =   0.2222222
        k(    3) = (   0.3333333   0.0000000   0.0000000), wk =   0.2222222
        k(    4) = (   0.3333333   0.4761644   0.0000000), wk =   0.2222222
        k(    5) = (  -0.3333333   0.4761644   0.0000000), wk =   0.2222222

                       cryst. coord.
        k(    1) = (   0.0000000   0.0000000   0.0000000), wk =   0.1111111
        k(    2) = (   0.0000000   0.3333333   0.0000000), wk =   0.2222222
        k(    3) = (   0.3333333   0.0000000   0.0000000), wk =   0.2222222
        k(    4) = (   0.3333333   0.3333333   0.0000000), wk =   0.2222222
        k(    5) = (  -0.3333333   0.3333333   0.0000000), wk =   0.2222222

     Check: negative core charge=   -0.000002
     Generating pointlists ...
     new r_m :   0.0393 (alat units)  1.2407 (a.u.) for type    1
     new r_m :   0.0478 (alat units)  1.5060 (a.u.) for type    2

     Initial potential from superposition of free atoms

     starting charge  207.98149, renormalised to  208.00000

     negative rho (up, down):  0.000E+00 3.527E-03
     Starting wfcs are  266 randomized atomic wfcs

     Self-consistent Calculation

     iteration #  1     ecut=    35.00 Ry     beta= 0.10
     Davidson diagonalization with overlap
     ethr =  1.00E-02,  avg # of iterations =  2.3

     negative rho (up, down):  0.000E+00 1.364E-03

     total energy              =    -636.00579480 Ry
     estimated scf accuracy    <      12.34556902 Ry

     total magnetization       =    41.01 Bohr mag/cell
     absolute magnetization    =    41.47 Bohr mag/cell

[...]

     iteration # 11     ecut=    35.00 Ry     beta= 0.10
     Davidson diagonalization with overlap
     c_bands:  1 eigenvalues not converged
     ethr =  1.55E-05,  avg # of iterations = 15.3

[...]

     total energy              =    -649.02069865 Ry
     estimated scf accuracy    <       0.00000100 Ry

[...]

     iteration #203     ecut=    35.00 Ry     beta= 0.10
     Davidson diagonalization with overlap
     ethr =  4.81E-10,  avg # of iterations =  2.2

     negative rho (up, down):  9.445E-04 9.406E-04

     Magnetic moment per site:
     atom:    1    charge:    1.1280    magn:    0.0010    constr:    0.0000
     atom:    2    charge:    1.0899    magn:    0.0068    constr:    0.0000
     atom:    3    charge:    1.0842    magn:    0.0038    constr:    0.0000
     atom:    4    charge:    1.1158    magn:    0.0010    constr:    0.0000
     atom:    5    charge:    1.0762    magn:    0.0114    constr:    0.0000
     atom:    6    charge:    1.1133    magn:   -0.0001    constr:    0.0000
     atom:    7    charge:    1.1101    magn:    0.0107    constr:    0.0000
     atom:    8    charge:    1.0777    magn:    0.0082    constr:    0.0000
     atom:    9    charge:    1.1052    magn:    0.0007    constr:    0.0000
     atom:   10    charge:    1.0887    magn:    0.0090    constr:    0.0000
     atom:   11    charge:    1.0755    magn:    0.0020    constr:    0.0000
     atom:   12    charge:    1.1119    magn:    0.0014    constr:    0.0000
     atom:   13    charge:    1.0777    magn:    0.0100    constr:    0.0000
     atom:   14    charge:    1.1121    magn:    0.0001    constr:    0.0000
     atom:   15    charge:    1.1163    magn:    0.0104    constr:    0.0000
     atom:   16    charge:    1.0804    magn:    0.0088    constr:    0.0000
     atom:   17    charge:    1.1248    magn:    0.0009    constr:    0.0000
     atom:   18    charge:    1.0918    magn:    0.0078    constr:    0.0000
     atom:   19    charge:    1.0842    magn:    0.0048    constr:    0.0000
     atom:   20    charge:    1.1178    magn:    0.0009    constr:    0.0000
     atom:   21    charge:    1.0934    magn:    0.0027    constr:    0.0000
     atom:   22    charge:    1.1106    magn:    0.0017    constr:    0.0000
     atom:   23    charge:    1.1143    magn:    0.0098    constr:    0.0000
     atom:   24    charge:    1.0822    magn:    0.0062    constr:    0.0000
     atom:   25    charge:    1.1183    magn:    0.0039    constr:    0.0000
     atom:   26    charge:    1.0780    magn:    0.0019    constr:    0.0000
     atom:   27    charge:    1.0846    magn:    0.0077    constr:    0.0000
     atom:   28    charge:    1.1156    magn:    0.0003    constr:    0.0000
     atom:   29    charge:    1.0941    magn:    0.0022    constr:    0.0000
     atom:   30    charge:    1.1060    magn:    0.0022    constr:    0.0000
     atom:   31    charge:    1.1160    magn:    0.0095    constr:    0.0000
     atom:   32    charge:    1.0846    magn:    0.0065    constr:    0.0000
     atom:   33    charge:    1.1155    magn:    0.0012    constr:    0.0000
     atom:   34    charge:    1.0836    magn:    0.0038    constr:    0.0000
     atom:   35    charge:    1.0896    magn:    0.0068    constr:    0.0000
     atom:   36    charge:    1.1279    magn:    0.0012    constr:    0.0000
     atom:   37    charge:    1.0780    magn:    0.0082    constr:    0.0000
     atom:   38    charge:    1.1100    magn:    0.0107    constr:    0.0000
     atom:   39    charge:    1.1133    magn:   -0.0001    constr:    0.0000
     atom:   40    charge:    1.0760    magn:    0.0115    constr:    0.0000
     atom:   41    charge:    1.1121    magn:    0.0016    constr:    0.0000
     atom:   42    charge:    1.0755    magn:    0.0022    constr:    0.0000
     atom:   43    charge:    1.0884    magn:    0.0093    constr:    0.0000
     atom:   44    charge:    1.1055    magn:    0.0009    constr:    0.0000
     atom:   45    charge:    1.0804    magn:    0.0088    constr:    0.0000
     atom:   46    charge:    1.1161    magn:    0.0104    constr:    0.0000
     atom:   47    charge:    1.1121    magn:    0.0001    constr:    0.0000
     atom:   48    charge:    1.0776    magn:    0.0101    constr:    0.0000
     atom:   49    charge:    1.1178    magn:    0.0012    constr:    0.0000
     atom:   50    charge:    1.0843    magn:    0.0048    constr:    0.0000
     atom:   51    charge:    1.0915    magn:    0.0078    constr:    0.0000
     atom:   52    charge:    1.1245    magn:    0.0012    constr:    0.0000
     atom:   53    charge:    1.0816    magn:    0.0063    constr:    0.0000
     atom:   54    charge:    1.1143    magn:    0.0098    constr:    0.0000
     atom:   55    charge:    1.1103    magn:    0.0017    constr:    0.0000
     atom:   56    charge:    1.0930    magn:    0.0026    constr:    0.0000
     atom:   57    charge:    1.1155    magn:    0.0005    constr:    0.0000
     atom:   58    charge:    1.0849    magn:    0.0079    constr:    0.0000
     atom:   59    charge:    1.0778    magn:    0.0022    constr:    0.0000
     atom:   60    charge:    1.1185    magn:    0.0040    constr:    0.0000
     atom:   61    charge:    1.0841    magn:    0.0065    constr:    0.0000
     atom:   62    charge:    1.1156    magn:    0.0096    constr:    0.0000
     atom:   63    charge:    1.1056    magn:    0.0021    constr:    0.0000
     atom:   64    charge:    1.0943    magn:    0.0022    constr:    0.0000
     atom:   65    charge:   13.2188    magn:   -0.1579    constr:    0.0000

     End of self-consistent calculation

 ------ SPIN UP ------------

          k = 0.0000 0.0000 0.0000 ( 38311 PWs)   bands (ev):

   -88.5566 -54.2325 -54.2004 -54.0888 -14.5825 -14.3797 -14.3700 -14.1250
   -13.8747 -13.8625 -13.6930 -13.6909 -13.6724 -13.6628 -13.4656 -13.4364
   -11.8749 -11.8512 -11.7730 -11.7523 -11.6243 -11.6206 -11.5197 -11.4778
   -10.8580 -10.2566 -10.2449  -9.9282  -9.8500  -9.6208  -9.5338  -9.5304
    -9.5108  -8.8641  -8.8423  -8.1800  -8.0483  -8.0360  -7.8569  -7.7719
    -7.7209  -7.7171  -7.4883  -7.4584  -7.3209  -6.9120  -6.8424  -6.7727
    -6.6865  -6.5217  -6.4194  -6.1393  -6.0197  -5.8133  -5.7802  -5.6180
    -5.6169  -5.3846  -5.3748  -5.3574  -5.3240  -5.2699  -5.1630  -5.1612
    -4.8697  -4.7667  -4.6930  -4.6781  -4.6263  -4.5686  -4.5176  -4.3927
    -4.3814  -4.3190  -4.2469  -4.2343  -4.2318  -3.9195  -3.8925  -3.8055
    -3.7365  -3.6630  -3.6372  -3.4447  -3.4115  -3.2798  -2.9674  -2.7955
    -2.7565  -2.6823  -2.3880  -2.0701  -1.9823  -1.8936  -1.7777  -1.7015
    -1.6982  -1.4463  -1.3534  -1.3299  -1.1267  -0.9187  -0.8061  -0.7032
    -0.5684  -0.4402  -0.4293  -0.2689  -0.1872  -0.1626   0.2864   0.4204
     0.4675   0.4954   0.5861   1.3365   1.3657   1.6686   1.9340   2.0289
     2.3473   2.4768   2.5505   2.5574   2.8808

     occupation numbers
     1.0000   1.0000   1.0000   1.0000   1.0000   1.0000   1.0000   1.0000
     1.0000   1.0000   1.0000   1.0000   1.0000   1.0000   1.0000   1.0000
     1.0000   1.0000   1.0000   1.0000   1.0000   1.0000   1.0000   1.0000
     1.0000   1.0000   1.0000   1.0000   1.0000   1.0000   1.0000   1.0000
     1.0000   1.0000   1.0000   1.0000   1.0000   1.0000   1.0000   1.0000
     1.0000   1.0000   1.0000   1.0000   1.0000   1.0000   1.0000   1.0000
     1.0000   1.0000   1.0000   1.0000   1.0000   1.0000   1.0000   1.0000
     1.0000   1.0000   1.0000   1.0000   1.0000   1.0000   1.0000   1.0000
     1.0000   1.0000   1.0000   1.0000   1.0000   1.0000   1.0000   1.0000
     1.0000   1.0000   1.0000   1.0000   1.0000   1.0000   1.0000   1.0000
     1.0000   1.0000   1.0000   1.0000   1.0000   1.0000   1.0000   1.0000
     1.0000   1.0000   1.0000   1.0000   1.0000   1.0000   1.0000   1.0000
     1.0000   1.0000   1.0000   1.0000   1.0000   1.0000   1.0000   1.0000
     0.4528   0.0000   0.0000   0.0000   0.0000   0.0000   0.0000   0.0000
     0.0000   0.0000   0.0000   0.0000   0.0000   0.0000   0.0000   0.0000
     0.0000   0.0000   0.0000   0.0000   0.0000

[...]

          k =-0.3333 0.4762 0.0000 ( 38347 PWs)   bands (ev):

[...]

 ------ SPIN DOWN ----------

[...]

          k = 0.3333 0.4762 0.0000 ( 38347 PWs)   bands (ev):

[...]

          k =-0.3333 0.4762 0.0000 ( 38347 PWs)   bands (ev):

   -88.7573 -54.4694 -54.3463 -54.3011 -14.4751 -14.3707 -14.2139 -14.1614
   -14.1309 -14.0600 -13.9268 -13.8317 -13.2945 -13.2157 -13.0317 -12.9438
   -12.6189 -12.5452 -12.3725 -12.2903 -10.9596 -10.8761 -10.7118 -10.7042
   -10.6314 -10.3647 -10.2840 -10.1934 -10.0955 -10.0166  -9.8203  -9.7184
    -9.2547  -9.0524  -8.6494  -8.5099  -8.4623  -8.2267  -8.0969  -7.7574
    -7.4337  -7.1396  -7.1074  -7.0400  -6.9396  -6.8993  -6.8358  -6.7836
    -6.4840  -6.3013  -6.2809  -6.1399  -6.0668  -5.8999  -5.8013  -5.6967
    -5.6507  -5.5614  -5.4718  -5.3257  -5.2884  -5.1789  -5.1375  -5.0787
    -4.9731  -4.9135  -4.8643  -4.7529  -4.7383  -4.6278  -4.5415  -4.5174
    -4.3627  -4.2849  -4.2113  -4.1935  -4.0448  -3.9231  -3.8447  -3.8029
    -3.6415  -3.5889  -3.5535  -3.3656  -3.3027  -3.1725  -2.9558  -2.9048
    -2.8240  -2.6687  -2.4363  -2.3597  -2.1798  -2.0531  -1.8406  -1.5974
    -1.5816  -1.3008  -1.2218  -1.1115  -1.0145  -0.7447  -0.6839  -0.5471
    -0.5232  -0.2664  -0.2071  -0.1868  -0.0469   0.1727   0.2614   0.6080
     0.6837   0.8430   0.9270   1.0025   1.0929   1.5881   1.6417   1.8168
     2.0202   2.0934   2.2222   2.3404   2.5348

     occupation numbers
     1.0000   1.0000   1.0000   1.0000   1.0000   1.0000   1.0000   1.0000
     1.0000   1.0000   1.0000   1.0000   1.0000   1.0000   1.0000   1.0000
     1.0000   1.0000   1.0000   1.0000   1.0000   1.0000   1.0000   1.0000
     1.0000   1.0000   1.0000   1.0000   1.0000   1.0000   1.0000   1.0000
     1.0000   1.0000   1.0000   1.0000   1.0000   1.0000   1.0000   1.0000
     1.0000   1.0000   1.0000   1.0000   1.0000   1.0000   1.0000   1.0000
     1.0000   1.0000   1.0000   1.0000   1.0000   1.0000   1.0000   1.0000
     1.0000   1.0000   1.0000   1.0000   1.0000   1.0000   1.0000   1.0000
     1.0000   1.0000   1.0000   1.0000   1.0000   1.0000   1.0000   1.0000
     1.0000   1.0000   1.0000   1.0000   1.0000   1.0000   1.0000   1.0000
     1.0000   1.0000   1.0000   1.0000   1.0000   1.0000   1.0000   1.0000
     1.0000   1.0000   1.0000   1.0000   1.0000   1.0000   1.0000   1.0000
     1.0000   1.0000   1.0000   1.0000   1.0000   1.0000   1.0000   0.0764
     0.0027   0.0000   0.0000   0.0000   0.0000   0.0000   0.0000   0.0000
     0.0000   0.0000   0.0000   0.0000   0.0000   0.0000   0.0000   0.0000
     0.0000   0.0000   0.0000   0.0000   0.0000

     the Fermi energy is    -0.5664 ev

!    total energy              =    -649.02070583 Ry
     estimated scf accuracy    <       0.00000100 Ry
     smearing contrib. (-TS)   =      -0.00016877 Ry
     internal energy E=F+TS    =    -649.02053706 Ry

     The total energy is F=E-TS. E is the sum of the following terms:
     one-electron contribution =   -1407.18785110 Ry
     hartree contribution      =     746.08707740 Ry
     xc contribution           =    -214.31820556 Ry
     ewald contribution        =     226.39844220 Ry

     total magnetization       =     0.92 Bohr mag/cell
     absolute magnetization    =     1.34 Bohr mag/cell

     convergence has been achieved in 203 iterations

     Writing output data file ./X3_Fe_sp.save/

     General routines

     Parallel routines

   This run was terminated on:  22:19:12   1Nov2021

   JOB DONE.