     Program PWSCF v.6.7MaX starts on 29Oct2021 at 14:21:10

     R & G space division:  proc/nbgrp/npool/nimage =       2
     Waiting for input...
     Reading input from standard input

     Current dimensions of program PWSCF are:
     Max number of different atomic species (ntypx) = 10
     Max number of k-points (npk) =  40000
     Max angular momentum in pseudopotentials (lmaxx) =  3
     file B.pbe-n-rrkjus_psl.1.0.0.UPF: wavefunction(s)  2S renormalized

     Subspace diagonalization in iterative solution of the eigenvalue problem:
     a serial algorithm will be used

     bravais-lattice index     =            8
     lattice parameter (alat)  =       9.4261  a.u.
     unit-cell volume          =     595.1740 (a.u.)^3
     number of atoms/cell      =            5
     number of atomic types    =            1
     number of electrons       =        15.00
     number of Kohn-Sham states=           12
     kinetic-energy cutoff     =      30.0000  Ry
     charge density cutoff     =     200.0000  Ry
     scf convergence threshold =      1.0E-06
     mixing beta               =       0.1000
     number of iterations used =            8  plain     mixing
     energy convergence thresh.=      1.0E-04
     force convergence thresh. =      1.0E-03
     press convergence thresh. =      5.0E-01
     Exchange-correlation= PBE
                           (   1   4   3   4   0   0   0)
     nstep                     =           50

     celldm(1)=   9.426087  celldm(2)=   0.592200  celldm(3)=   1.200000
     celldm(4)=   0.000000  celldm(5)=   0.000000  celldm(6)=   0.000000

     crystal axes: (cart. coord. in units of alat)
               a(1) = (   1.000000   0.000000   0.000000 )
               a(2) = (   0.000000   0.592200   0.000000 )
               a(3) = (   0.000000   0.000000   1.200000 )

     reciprocal axes: (cart. coord. in units 2 pi/alat)
               b(1) = (  1.000000  0.000000  0.000000 )
               b(2) = (  0.000000  1.688619  0.000000 )
               b(3) = (  0.000000  0.000000  0.833333 )

     PseudoPot. # 1 for B  read from file:
     ./B.pbe-n-rrkjus_psl.1.0.0.UPF
     MD5 check sum: 21bc42b8719306ef1fe0545c7dabf1c6
     Pseudo is Ultrasoft + core correction, Zval =  3.0
     Generated using &quot;atomic&quot; code by A. Dal Corso  v.6.3MaX
     Using radial grid of 1059 points,  4 beta functions with:
                l(1) =   0
                l(2) =   0
                l(3) =   1
                l(4) =   1
     Q(r) pseudized with 0 coefficients

     atomic species   valence    mass     pseudopotential
        B              3.00    10.81100     B ( 1.00)

      4 Sym. Ops. (no inversion) found

   Cartesian axes

     site n.     atom                  positions (alat units)
         1           B   tau(   1) = (   0.0000000   0.0000000   0.0000000  )
         2           B   tau(   2) = (   0.3333300   0.0000000   0.0000000  )
         3           B   tau(   3) = (   0.6666700   0.0000000   0.0000000  )
         4           B   tau(   4) = (   0.1666700   0.2961000   0.0000000  )
         5           B   tau(   5) = (   0.5000000   0.2961000   0.0000000  )

     number of k points=     6  Marzari-Vanderbilt smearing, width (Ry)=  0.0050
                       cart. coord. in units 2pi/alat
        k(    1) = (   0.0000000   0.0000000   0.0000000), wk =   0.2500000
        k(    2) = (   0.0000000   0.4221547   0.0000000), wk =   0.5000000
        k(    3) = (   0.0000000  -0.8443094   0.0000000), wk =   0.2500000
        k(    4) = (  -0.5000000   0.0000000   0.0000000), wk =   0.2500000
        k(    5) = (  -0.5000000   0.4221547   0.0000000), wk =   0.5000000
        k(    6) = (  -0.5000000  -0.8443094   0.0000000), wk =   0.2500000

     Check: negative core charge=   -0.000005

     Initial potential from superposition of free atoms

     starting charge   14.99859, renormalised to   15.00000
     Starting wfcs are   20 randomized atomic wfcs

     Self-consistent Calculation

     iteration #  1     ecut=    30.00 Ry     beta= 0.10
     Davidson diagonalization with overlap
     ethr =  1.00E-02,  avg # of iterations =  2.0

     total energy              =     -31.56043848 Ry
     estimated scf accuracy    <       0.53112988 Ry

[...]

     negative rho (up, down):  7.849E-03 0.000E+00

[...]

     End of self-consistent calculation

          k = 0.0000 0.0000 0.0000 (  1631 PWs)   bands (ev):

   -13.4257  -9.0040  -7.0192  -4.8712  -4.2521   0.7078   0.7089   1.2273
     3.0410   4.0756   4.4329   5.0869

[...]

          k =-0.5000 0.0000 0.0000 (  1632 PWs)   bands (ev):

[...]

     the Fermi energy is     0.7141 ev

!    total energy              =     -31.38512137 Ry
     estimated scf accuracy    <       0.00000021 Ry
     smearing contrib. (-TS)   =      -0.00021158 Ry
     internal energy E=F+TS    =     -31.38490980 Ry

     The total energy is F=E-TS. E is the sum of the following terms:
     one-electron contribution =     -39.00432152 Ry
     hartree contribution      =      23.87572727 Ry
     xc contribution           =     -14.63613496 Ry
     ewald contribution        =      -1.62018058 Ry

     convergence has been achieved in  18 iterations

[...]

     Forces acting on atoms (cartesian axes, Ry/au):

     atom    1 type  1   force =    -0.04017951    0.00000000    0.00000000
     atom    2 type  1   force =     0.00002766    0.00000000    0.00000000
     atom    3 type  1   force =     0.04016138    0.00000000    0.00000000
     atom    4 type  1   force =    -0.01170704    0.00000000    0.00000000
     atom    5 type  1   force =     0.01169752    0.00000000    0.00000000

     Total force =     0.000000     Total SCF correction =     0.000000

     Computing stress (Cartesian axis) and pressure

     negative rho (up, down):  4.778E-04 0.000E+00
          total   stress  (Ry/bohr**3)                   (kbar)     P=        1.94
   0.00000496   0.00000000   0.00000000            0.73        0.00        0.00
   0.00000000  -0.00000068   0.00000000            0.00       -0.10        0.00
   0.00000000   0.00000000   0.00003527            0.00        0.00        5.19

     BFGS Geometry Optimization
     Energy error            =      0.0E+00
     Gradient error          =      0.0E+00
     Cell gradient error     =      5.0E-06

     number of scf cycles    =   1
     number of bfgs steps    =   0

     enthalpy new            =     -31.3851213724 Ry

     new trust radius        =       0.0006056195 bohr
     new conv_thr            =       0.0000010000 Ry

     new unit-cell volume =    595.23782 a.u.^3 (    88.20514 Ang^3 )
     density =      1.01763 g/cm^3

CELL_PARAMETERS (alat=  9.42608684)
   1.000124122   0.000000000   0.000000000
   0.000000000   0.592189986   0.000000000
   0.000000000   0.000000000   1.200000000

ATOMIC_POSITIONS (crystal)
B             0.0000000000        0.0000000000        0.0000000000    0   0   0
B             0.3333300000        0.0000000000        0.0000000000    0   0   0
B             0.6666700000        0.0000000000        0.0000000000    0   0   0
B             0.1666700000        0.5000000000        0.0000000000    0   0   0
B             0.5000000000        0.5000000000        0.0000000000    0   0   0

     Writing output data file ./b12_22.save/
     NEW-OLD atomic charge density approx. for the potential

[...]

     negative rho (up, down):  4.772E-04 0.000E+00
     extrapolated charge   15.00161, renormalised to   15.00000

[...]

     Threshold (ethr) on eigenvalues was too large:
     Diagonalizing with lowered threshold

     Davidson diagonalization with overlap
     ethr =  1.23E-09,  avg # of iterations =  2.5

[...]

     Energy error            =      1.5E-06
     Gradient error          =      0.0E+00
     Cell gradient error     =      2.9E-06

     bfgs converged in   2 scf cycles and   1 bfgs steps
     (criteria: energy <  1.0E-04 Ry, force <  1.0E-03Ry/Bohr, cell <  5.0E-01kbar)

     End of BFGS Geometry Optimization

     Final enthalpy =     -31.3851228755 Ry

     File ./b12_22.bfgs deleted, as requested
Begin final coordinates
     new unit-cell volume =    595.23782 a.u.^3 (    88.20514 Ang^3 )
     density =      1.01763 g/cm^3

CELL_PARAMETERS (alat=  9.42608684)
   1.000124122   0.000000000   0.000000000
   0.000000000   0.592189986   0.000000000
   0.000000000   0.000000000   1.200000000

ATOMIC_POSITIONS (crystal)
B             0.0000000000        0.0000000000        0.0000000000    0   0   0
B             0.3333300000        0.0000000000        0.0000000000    0   0   0
B             0.6666700000        0.0000000000        0.0000000000    0   0   0
B             0.1666700000        0.5000000000        0.0000000000    0   0   0
B             0.5000000000        0.5000000000        0.0000000000    0   0   0
End final coordinates

     Writing output data file ./b12_22.save/

     Final scf calculation at the relaxed structure.
     The G-vectors are recalculated for the final unit cell
     Results may differ from those at the preceding step.

     bravais-lattice index     =            8
     lattice parameter (alat)  =       9.4261  a.u.
     unit-cell volume          =     595.2378 (a.u.)^3
     number of atoms/cell      =            5
     number of atomic types    =            1
     number of electrons       =        15.00
     number of Kohn-Sham states=           12
     kinetic-energy cutoff     =      30.0000  Ry
     charge density cutoff     =     200.0000  Ry
     scf convergence threshold =      1.0E-06
     mixing beta               =       0.1000
     number of iterations used =            8  plain     mixing
     press convergence thresh. =      5.0E-01
     Exchange-correlation= PBE
                           (   1   4   3   4   0   0   0)

     celldm(1)=   9.426087  celldm(2)=   0.592200  celldm(3)=   1.200000
     celldm(4)=   0.000000  celldm(5)=   0.000000  celldm(6)=   0.000000

     crystal axes: (cart. coord. in units of alat)
               a(1) = (   1.000124   0.000000   0.000000 )
               a(2) = (   0.000000   0.592190   0.000000 )
               a(3) = (   0.000000   0.000000   1.200000 )

     reciprocal axes: (cart. coord. in units 2 pi/alat)
               b(1) = (  0.999876  0.000000  0.000000 )
               b(2) = (  0.000000  1.688647  0.000000 )
               b(3) = (  0.000000  0.000000  0.833333 )

     PseudoPot. # 1 for B  read from file:
     ./B.pbe-n-rrkjus_psl.1.0.0.UPF
     MD5 check sum: 21bc42b8719306ef1fe0545c7dabf1c6
     Pseudo is Ultrasoft + core correction, Zval =  3.0
     Generated using &quot;atomic&quot; code by A. Dal Corso  v.6.3MaX
     Using radial grid of 1059 points,  4 beta functions with:
                l(1) =   0
                l(2) =   0
                l(3) =   1
                l(4) =   1
     Q(r) pseudized with 0 coefficients

     atomic species   valence    mass     pseudopotential
        B              3.00    10.81100     B ( 1.00)

      4 Sym. Ops. (no inversion) found

   Cartesian axes

     site n.     atom                  positions (alat units)
         1           B   tau(   1) = (   0.0000000   0.0000000   0.0000000  )
         2           B   tau(   2) = (   0.3333714   0.0000000   0.0000000  )
         3           B   tau(   3) = (   0.6667527   0.0000000   0.0000000  )
         4           B   tau(   4) = (   0.1666907   0.2960950   0.0000000  )
         5           B   tau(   5) = (   0.5000621   0.2960950   0.0000000  )

     number of k points=     6  Marzari-Vanderbilt smearing, width (Ry)=  0.0050
                       cart. coord. in units 2pi/alat
        k(    1) = (   0.0000000   0.0000000   0.0000000), wk =   0.2500000
        k(    2) = (   0.0000000   0.4221618   0.0000000), wk =   0.5000000
        k(    3) = (   0.0000000  -0.8443236   0.0000000), wk =   0.2500000
        k(    4) = (  -0.4999379   0.0000000   0.0000000), wk =   0.2500000
        k(    5) = (  -0.4999379   0.4221618   0.0000000), wk =   0.5000000
        k(    6) = (  -0.4999379  -0.8443236   0.0000000), wk =   0.2500000

     Check: negative core charge=   -0.000005

     Initial potential from superposition of free atoms

     starting charge   14.99859, renormalised to   15.00000
     Starting wfcs are   20 randomized atomic wfcs

     Self-consistent Calculation

[...]

     total energy              =     -31.38293444 Ry
     estimated scf accuracy    <       0.00000258 Ry

     iteration # 12     ecut=    30.00 Ry     beta= 0.10
     Davidson diagonalization with overlap
     ethr =  1.72E-08,  avg # of iterations =  2.0

[...]

     End of self-consistent calculation

[...]

          k = 0.0000-0.8443 0.0000 (  1670 PWs)   bands (ev):

[...]

          k =-0.4999-0.8443 0.0000 (  1664 PWs)   bands (ev):

   -10.7391 -10.2428  -8.5135  -5.9010  -3.3075  -1.4210   0.1311   0.6189
     1.3935   4.3674   5.8099   8.1935

     the Fermi energy is     0.7096 ev

!    total energy              =     -31.38511021 Ry
     estimated scf accuracy    <       0.00000052 Ry
     smearing contrib. (-TS)   =      -0.00021052 Ry
     internal energy E=F+TS    =     -31.38489969 Ry

     The total energy is F=E-TS. E is the sum of the following terms:
     one-electron contribution =     -38.99534632 Ry
     hartree contribution      =      23.86807601 Ry
     xc contribution           =     -14.63493132 Ry
     ewald contribution        =      -1.62269806 Ry

     convergence has been achieved in  12 iterations

     negative rho (up, down):  4.652E-04 0.000E+00

     Forces acting on atoms (cartesian axes, Ry/au):

     atom    1 type  1   force =    -0.04023103    0.00000000    0.00000000
     atom    2 type  1   force =     0.00002752    0.00000000    0.00000000
     atom    3 type  1   force =     0.04021283    0.00000000    0.00000000
     atom    4 type  1   force =    -0.01148533    0.00000000    0.00000000
     atom    5 type  1   force =     0.01147601    0.00000000    0.00000000

     Total force =     0.000000     Total SCF correction =     0.000000

     Computing stress (Cartesian axis) and pressure

     negative rho (up, down):  4.652E-04 0.000E+00
          total   stress  (Ry/bohr**3)                   (kbar)     P=        1.73
   0.00000337   0.00000000   0.00000000            0.50        0.00        0.00
   0.00000000   0.00000014   0.00000000            0.00        0.02        0.00
   0.00000000   0.00000000   0.00003171            0.00        0.00        4.67

     Writing output data file ./b12_22.save/

     General routines

     Parallel routines

   This run was terminated on:  14:21:20  29Oct2021

   JOB DONE.