     Program PWSCF v.6.7MaX starts on 29Oct2021 at 15:13:17

     R & G space division:  proc/nbgrp/npool/nimage =       2
     Waiting for input...
     Reading input from standard input

     Current dimensions of program PWSCF are:
     Max number of different atomic species (ntypx) = 10
     Max number of k-points (npk) =  40000
     Max angular momentum in pseudopotentials (lmaxx) =  3
     file B.pbe-n-rrkjus_psl.1.0.0.UPF: wavefunction(s)  2S renormalized

     Subspace diagonalization in iterative solution of the eigenvalue problem:
     a serial algorithm will be used

     bravais-lattice index     =            8
     lattice parameter (alat)  =      19.1522  a.u.
     unit-cell volume          =    2853.1485 (a.u.)^3
     number of atoms/cell      =           20
     number of atomic types    =            1
     number of electrons       =        60.00
     number of Kohn-Sham states=           36
     kinetic-energy cutoff     =      30.0000  Ry
     charge density cutoff     =     200.0000  Ry
     scf convergence threshold =      1.0E-06
     mixing beta               =       0.1000
     number of iterations used =            8  plain     mixing
     energy convergence thresh.=      1.0E-04
     force convergence thresh. =      1.0E-03
     press convergence thresh. =      5.0E-01
     Exchange-correlation= PBE
                           (   1   4   3   4   0   0   0)
     nstep                     =           50

     celldm(1)=  19.152167  celldm(2)=   0.580193  celldm(3)=   0.700000
     celldm(4)=   0.000000  celldm(5)=   0.000000  celldm(6)=   0.000000

     crystal axes: (cart. coord. in units of alat)
               a(1) = (   1.000000   0.000000   0.000000 )
               a(2) = (   0.000000   0.580193   0.000000 )
               a(3) = (   0.000000   0.000000   0.700000 )

     reciprocal axes: (cart. coord. in units 2 pi/alat)
               b(1) = (  1.000000  0.000000  0.000000 )
               b(2) = (  0.000000  1.723564  0.000000 )
               b(3) = (  0.000000  0.000000  1.428571 )

     PseudoPot. # 1 for B  read from file:
     ./B.pbe-n-rrkjus_psl.1.0.0.UPF
     MD5 check sum: 21bc42b8719306ef1fe0545c7dabf1c6
     Pseudo is Ultrasoft + core correction, Zval =  3.0
     Generated using &quot;atomic&quot; code by A. Dal Corso  v.6.3MaX
     Using radial grid of 1059 points,  4 beta functions with:
                l(1) =   0
                l(2) =   0
                l(3) =   1
                l(4) =   1
     Q(r) pseudized with 0 coefficients

     atomic species   valence    mass     pseudopotential
        B              3.00    10.81100     B ( 1.00)

      2 Sym. Ops. (no inversion) found

   Cartesian axes

     site n.     atom                  positions (alat units)
         1           B   tau(   1) = (   0.5082219   0.0024367   0.0000000  )
         2           B   tau(   2) = (   0.6776245   0.0024367   0.0000000  )
         3           B   tau(   3) = (   0.8470321   0.0024367   0.0000000  )
         4           B   tau(   4) = (   0.5929257   0.1448381   0.0000000  )
         5           B   tau(   5) = (   0.7618251   0.1448381   0.0000000  )
         6           B   tau(   6) = (   0.5082219   0.2901861   0.0000000  )
         7           B   tau(   7) = (   0.6776245   0.2901861   0.0000000  )
         8           B   tau(   8) = (   0.8470321   0.2901861   0.0000000  )
         9           B   tau(   9) = (   0.5929257   0.4325875   0.0000000  )
        10           B   tau(  10) = (   0.7618251   0.4325875   0.0000000  )
        11           B   tau(  11) = (   0.0000093   0.0024367   0.0000000  )
        12           B   tau(  12) = (   0.1694117   0.0024367   0.0000000  )
        13           B   tau(  13) = (   0.3388193   0.0024367   0.0000000  )
        14           B   tau(  14) = (   0.0847132   0.1448381   0.0000000  )
        15           B   tau(  15) = (   0.2536124   0.1448381   0.0000000  )
        16           B   tau(  16) = (   0.0000093   0.2901861   0.0000000  )
        17           B   tau(  17) = (   0.1694117   0.2901861   0.0000000  )
        18           B   tau(  18) = (   0.3388193   0.2901861   0.0000000  )
        19           B   tau(  19) = (   0.0847132   0.4325875   0.0000000  )
        20           B   tau(  20) = (   0.2536124   0.4325875   0.0000000  )

     number of k points=     6  Marzari-Vanderbilt smearing, width (Ry)=  0.0050
                       cart. coord. in units 2pi/alat
        k(    1) = (   0.0000000   0.0000000   0.0000000), wk =   0.2500000
        k(    2) = (   0.0000000   0.4308910   0.0000000), wk =   0.5000000
        k(    3) = (   0.0000000  -0.8617820   0.0000000), wk =   0.2500000
        k(    4) = (  -0.5000000   0.0000000   0.0000000), wk =   0.2500000
        k(    5) = (  -0.5000000   0.4308910   0.0000000), wk =   0.5000000
        k(    6) = (  -0.5000000  -0.8617820   0.0000000), wk =   0.2500000

     Check: negative core charge=   -0.000005

     Initial potential from superposition of free atoms

     starting charge   59.99435, renormalised to   60.00000
     Starting wfcs are   80 randomized atomic wfcs

     Self-consistent Calculation

     iteration #  1     ecut=    30.00 Ry     beta= 0.10
     Davidson diagonalization with overlap
     ethr =  1.00E-02,  avg # of iterations =  2.0

     total energy              =    -126.21369820 Ry
     estimated scf accuracy    <       2.01992233 Ry

[...]

     negative rho (up, down):  2.820E-02 0.000E+00

[...]

     iteration #  9     ecut=    30.00 Ry     beta= 0.10
     Davidson diagonalization with overlap
     c_bands:  1 eigenvalues not converged
     ethr =  1.13E-05,  avg # of iterations =  6.5

[...]

     End of self-consistent calculation

          k = 0.0000 0.0000 0.0000 (  7973 PWs)   bands (ev):

   -14.2155 -14.0185 -11.6421 -11.4575 -11.1493 -11.0838 -11.0017  -9.8308
    -9.2653  -8.6598  -7.9599  -6.7239  -5.4516  -5.2062  -5.1324  -5.1188
    -4.9132  -4.9045  -4.7328  -4.6043  -4.1147  -3.5840  -2.3243  -2.1682
    -1.5780  -1.2505  -0.7272  -0.4848  -0.2500  -0.2115   0.0319   0.2446
     0.5049   1.8517   3.0859   3.5041

[...]

          k =-0.5000 0.0000 0.0000 (  7894 PWs)   bands (ev):

[...]

     the Fermi energy is    -0.2387 ev

!    total energy              =    -125.55529073 Ry
     estimated scf accuracy    <       0.00000073 Ry
     smearing contrib. (-TS)   =      -0.00068169 Ry
     internal energy E=F+TS    =    -125.55460904 Ry

     The total energy is F=E-TS. E is the sum of the following terms:
     one-electron contribution =    -223.56801699 Ry
     hartree contribution      =     127.33627171 Ry
     xc contribution           =     -58.35166339 Ry
     ewald contribution        =      29.02879963 Ry

     convergence has been achieved in  17 iterations

[...]

     Forces acting on atoms (cartesian axes, Ry/au):

     atom    1 type  1   force =    -0.03556454   -0.02272186    0.00000000
     atom    2 type  1   force =    -0.00350584   -0.03356939    0.00000000
     atom    3 type  1   force =    -0.07783846   -0.02336397    0.00000000
     atom    4 type  1   force =    -0.01176762    0.00956844    0.00000000
     atom    5 type  1   force =     0.00662962    0.01050754    0.00000000
     atom    6 type  1   force =    -0.04440516   -0.00837778    0.00000000
     atom    7 type  1   force =    -0.00253514   -0.00521254    0.00000000
     atom    8 type  1   force =    -0.07315428   -0.00786819    0.00000000
     atom    9 type  1   force =    -0.01087382    0.04047353    0.00000000
     atom   10 type  1   force =     0.00628432    0.04075635    0.00000000
     atom   11 type  1   force =     0.07818265   -0.02412637    0.00000000
     atom   12 type  1   force =     0.00299587   -0.03308175    0.00000000
     atom   13 type  1   force =     0.03220452   -0.02208662    0.00000000
     atom   14 type  1   force =    -0.00572779    0.01045212    0.00000000
     atom   15 type  1   force =     0.01473300    0.00960149    0.00000000
     atom   16 type  1   force =     0.07300637   -0.00798947    0.00000000
     atom   17 type  1   force =     0.00147527   -0.00522077    0.00000000
     atom   18 type  1   force =     0.04121393   -0.00828457    0.00000000
     atom   19 type  1   force =    -0.00510531    0.04048031    0.00000000
     atom   20 type  1   force =     0.01375243    0.04006350    0.00000000

     Total force =     0.000000     Total SCF correction =     0.000000

     Computing stress (Cartesian axis) and pressure

     negative rho (up, down):  4.985E-03 0.000E+00
          total   stress  (Ry/bohr**3)                   (kbar)     P=       -7.57
  -0.00000529   0.00000123   0.00000000           -0.78        0.18        0.00
   0.00000123  -0.00011711   0.00000000            0.18      -17.23        0.00
   0.00000000   0.00000000  -0.00003195            0.00        0.00       -4.70

     BFGS Geometry Optimization
     Energy error            =      0.0E+00
     Gradient error          =      0.0E+00
     Cell gradient error     =      1.2E-04

     number of scf cycles    =   1
     number of bfgs steps    =   0

     enthalpy new            =    -125.5552907284 Ry

     new trust radius        =       0.0312775243 bohr
     new conv_thr            =       0.0000010000 Ry

     new unit-cell volume =   2844.41859 a.u.^3 (   421.49935 Ang^3 )
     density =      0.85182 g/cm^3

CELL_PARAMETERS (alat= 19.15216671)
   0.999867655   0.000000000   0.000000000
   0.000000000   0.578494466   0.000000000
   0.000000000   0.000000000   0.700000000

ATOMIC_POSITIONS (crystal)
B             0.5082218959        0.0041997725        0.0000000000    0   0   0
B             0.6776244512        0.0041997725        0.0000000000    0   0   0
B             0.8470320887        0.0041997725        0.0000000000    0   0   0
B             0.5929257146        0.2496377061        0.0000000000    0   0   0
B             0.7618251393        0.2496377061        0.0000000000    0   0   0
B             0.5082218959        0.5001542435        0.0000000000    0   0   0
B             0.6776244512        0.5001542435        0.0000000000    0   0   0
B             0.8470320887        0.5001542435        0.0000000000    0   0   0
B             0.5929257146        0.7455922069        0.0000000000    0   0   0
B             0.7618251393        0.7455922069        0.0000000000    0   0   0
B             0.0000093308        0.0041997725        0.0000000000    0   0   0
B             0.1694117031        0.0041997725        0.0000000000    0   0   0
B             0.3388193406        0.0041997725        0.0000000000    0   0   0
B             0.0847131698        0.2496377061        0.0000000000    0   0   0
B             0.2536123912        0.2496377061        0.0000000000    0   0   0
B             0.0000093308        0.5001542435        0.0000000000    0   0   0
B             0.1694117031        0.5001542435        0.0000000000    0   0   0
B             0.3388193406        0.5001542435        0.0000000000    0   0   0
B             0.0847131698        0.7455922069        0.0000000000    0   0   0
B             0.2536123912        0.7455922069        0.0000000000    0   0   0

     Writing output data file ./b12_22.save/
     NEW-OLD atomic charge density approx. for the potential

[...]

     negative rho (up, down):  5.040E-03 0.000E+00
     extrapolated charge   59.81587, renormalised to   60.00000

[...]

     Energy error            =      7.4E-04
     Gradient error          =      0.0E+00
     Cell gradient error     =      5.4E-05

[...]

     enthalpy old            =    -125.5552907284 Ry
     enthalpy new            =    -125.5560264502 Ry

     CASE: enthalpy_new < enthalpy_old

[...]

     Threshold (ethr) on eigenvalues was too large:
     Diagonalizing with lowered threshold

     Davidson diagonalization with overlap
     ethr =  1.11E-08,  avg # of iterations =  1.5

[...]

     number of scf cycles    =   4
     number of bfgs steps    =   3

     enthalpy old            =    -125.5562258109 Ry
     enthalpy new            =    -125.5562289587 Ry

     CASE: enthalpy_new < enthalpy_old

     new trust radius        =       0.0020070056 bohr
     new conv_thr            =       0.0000000100 Ry

     new unit-cell volume =   2838.90621 a.u.^3 (   420.68250 Ang^3 )
     density =      0.85347 g/cm^3

[...]

ATOMIC_POSITIONS (crystal)
B             0.5082218959        0.0041997725        0.0000000000    0   0   0
B             0.6776244512        0.0041997725        0.0000000000    0   0   0
B             0.8470320887        0.0041997725        0.0000000000    0   0   0
B             0.5929257146        0.2496377061        0.0000000000    0   0   0
B             0.7618251393        0.2496377061        0.0000000000    0   0   0
B             0.5082218959        0.5001542435        0.0000000000    0   0   0
B             0.6776244512        0.5001542435        0.0000000000    0   0   0
B             0.8470320887        0.5001542435        0.0000000000    0   0   0
B             0.5929257146        0.7455922069        0.0000000000    0   0   0
B             0.7618251393        0.7455922069        0.0000000000    0   0   0
B             0.0000093308        0.0041997725        0.0000000000    0   0   0
B             0.1694117031        0.0041997725        0.0000000000    0   0   0
B             0.3388193406        0.0041997725        0.0000000000    0   0   0
B             0.0847131698        0.2496377061        0.0000000000    0   0   0
B             0.2536123912        0.2496377061        0.0000000000    0   0   0
B             0.0000093308        0.5001542435        0.0000000000    0   0   0
B             0.1694117031        0.5001542435        0.0000000000    0   0   0
B             0.3388193406        0.5001542435        0.0000000000    0   0   0
B             0.0847131698        0.7455922069        0.0000000000    0   0   0
B             0.2536123912        0.7455922069        0.0000000000    0   0   0

     Writing output data file ./b12_22.save/
     NEW-OLD atomic charge density approx. for the potential

[...]

     negative rho (up, down):  4.976E-03 0.000E+00
     extrapolated charge   60.01038, renormalised to   60.00000

[...]

     Threshold (ethr) on eigenvalues was too large:
     Diagonalizing with lowered threshold

     Davidson diagonalization with overlap
     ethr =  8.99E-09,  avg # of iterations =  1.7

[...]

     Energy error            =      1.0E-06
     Gradient error          =      0.0E+00
     Cell gradient error     =      1.2E-07

     bfgs converged in   5 scf cycles and   4 bfgs steps
     (criteria: energy <  1.0E-04 Ry, force <  1.0E-03Ry/Bohr, cell <  5.0E-01kbar)

     End of BFGS Geometry Optimization

     Final enthalpy =    -125.5562299769 Ry

     File ./b12_22.bfgs deleted, as requested
Begin final coordinates
     new unit-cell volume =   2838.90621 a.u.^3 (   420.68250 Ang^3 )
     density =      0.85347 g/cm^3

CELL_PARAMETERS (alat= 19.15216671)
   1.000501103   0.000000000   0.000000000
   0.000000000   0.577007812   0.000000000
   0.000000000   0.000000000   0.700000000

ATOMIC_POSITIONS (crystal)
B             0.5082218959        0.0041997725        0.0000000000    0   0   0
B             0.6776244512        0.0041997725        0.0000000000    0   0   0
B             0.8470320887        0.0041997725        0.0000000000    0   0   0
B             0.5929257146        0.2496377061        0.0000000000    0   0   0
B             0.7618251393        0.2496377061        0.0000000000    0   0   0
B             0.5082218959        0.5001542435        0.0000000000    0   0   0
B             0.6776244512        0.5001542435        0.0000000000    0   0   0
B             0.8470320887        0.5001542435        0.0000000000    0   0   0
B             0.5929257146        0.7455922069        0.0000000000    0   0   0
B             0.7618251393        0.7455922069        0.0000000000    0   0   0
B             0.0000093308        0.0041997725        0.0000000000    0   0   0
B             0.1694117031        0.0041997725        0.0000000000    0   0   0
B             0.3388193406        0.0041997725        0.0000000000    0   0   0
B             0.0847131698        0.2496377061        0.0000000000    0   0   0
B             0.2536123912        0.2496377061        0.0000000000    0   0   0
B             0.0000093308        0.5001542435        0.0000000000    0   0   0
B             0.1694117031        0.5001542435        0.0000000000    0   0   0
B             0.3388193406        0.5001542435        0.0000000000    0   0   0
B             0.0847131698        0.7455922069        0.0000000000    0   0   0
B             0.2536123912        0.7455922069        0.0000000000    0   0   0
End final coordinates

     Writing output data file ./b12_22.save/

     Final scf calculation at the relaxed structure.
     The G-vectors are recalculated for the final unit cell
     Results may differ from those at the preceding step.

     bravais-lattice index     =            8
     lattice parameter (alat)  =      19.1522  a.u.
     unit-cell volume          =    2838.9062 (a.u.)^3
     number of atoms/cell      =           20
     number of atomic types    =            1
     number of electrons       =        60.00
     number of Kohn-Sham states=           36
     kinetic-energy cutoff     =      30.0000  Ry
     charge density cutoff     =     200.0000  Ry
     scf convergence threshold =      1.0E-08
     mixing beta               =       0.1000
     number of iterations used =            8  plain     mixing
     press convergence thresh. =      5.0E-01
     Exchange-correlation= PBE
                           (   1   4   3   4   0   0   0)

     celldm(1)=  19.152167  celldm(2)=   0.580193  celldm(3)=   0.700000
     celldm(4)=   0.000000  celldm(5)=   0.000000  celldm(6)=   0.000000

     crystal axes: (cart. coord. in units of alat)
               a(1) = (   1.000501   0.000000   0.000000 )
               a(2) = (   0.000000   0.577008   0.000000 )
               a(3) = (   0.000000   0.000000   0.700000 )

     reciprocal axes: (cart. coord. in units 2 pi/alat)
               b(1) = (  0.999499  0.000000  0.000000 )
               b(2) = (  0.000000  1.733079  0.000000 )
               b(3) = (  0.000000  0.000000  1.428571 )

     PseudoPot. # 1 for B  read from file:
     ./B.pbe-n-rrkjus_psl.1.0.0.UPF
     MD5 check sum: 21bc42b8719306ef1fe0545c7dabf1c6
     Pseudo is Ultrasoft + core correction, Zval =  3.0
     Generated using &quot;atomic&quot; code by A. Dal Corso  v.6.3MaX
     Using radial grid of 1059 points,  4 beta functions with:
                l(1) =   0
                l(2) =   0
                l(3) =   1
                l(4) =   1
     Q(r) pseudized with 0 coefficients

     atomic species   valence    mass     pseudopotential
        B              3.00    10.81100     B ( 1.00)

      2 Sym. Ops. (no inversion) found

   Cartesian axes

     site n.     atom                  positions (alat units)
         1           B   tau(   1) = (   0.5084766   0.0024233   0.0000000  )
         2           B   tau(   2) = (   0.6779640   0.0024233   0.0000000  )
         3           B   tau(   3) = (   0.8474565   0.0024233   0.0000000  )
         4           B   tau(   4) = (   0.5932228   0.1440429   0.0000000  )
         5           B   tau(   5) = (   0.7622069   0.1440429   0.0000000  )
         6           B   tau(   6) = (   0.5084766   0.2885929   0.0000000  )
         7           B   tau(   7) = (   0.6779640   0.2885929   0.0000000  )
         8           B   tau(   8) = (   0.8474565   0.2885929   0.0000000  )
         9           B   tau(   9) = (   0.5932228   0.4302125   0.0000000  )
        10           B   tau(  10) = (   0.7622069   0.4302125   0.0000000  )
        11           B   tau(  11) = (   0.0000093   0.0024233   0.0000000  )
        12           B   tau(  12) = (   0.1694966   0.0024233   0.0000000  )
        13           B   tau(  13) = (   0.3389891   0.0024233   0.0000000  )
        14           B   tau(  14) = (   0.0847556   0.1440429   0.0000000  )
        15           B   tau(  15) = (   0.2537395   0.1440429   0.0000000  )
        16           B   tau(  16) = (   0.0000093   0.2885929   0.0000000  )
        17           B   tau(  17) = (   0.1694966   0.2885929   0.0000000  )
        18           B   tau(  18) = (   0.3389891   0.2885929   0.0000000  )
        19           B   tau(  19) = (   0.0847556   0.4302125   0.0000000  )
        20           B   tau(  20) = (   0.2537395   0.4302125   0.0000000  )

     number of k points=     6  Marzari-Vanderbilt smearing, width (Ry)=  0.0050
                       cart. coord. in units 2pi/alat
        k(    1) = (   0.0000000   0.0000000   0.0000000), wk =   0.2500000
        k(    2) = (   0.0000000   0.4332697   0.0000000), wk =   0.5000000
        k(    3) = (   0.0000000  -0.8665394   0.0000000), wk =   0.2500000
        k(    4) = (  -0.4997496   0.0000000   0.0000000), wk =   0.2500000
        k(    5) = (  -0.4997496   0.4332697   0.0000000), wk =   0.5000000
        k(    6) = (  -0.4997496  -0.8665394   0.0000000), wk =   0.2500000

     Check: negative core charge=   -0.000005

     Initial potential from superposition of free atoms

     starting charge   59.99435, renormalised to   60.00000
     Starting wfcs are   80 randomized atomic wfcs

     Self-consistent Calculation

[...]

     iteration # 14     ecut=    30.00 Ry     beta= 0.10
     Davidson diagonalization with overlap
     c_bands:  1 eigenvalues not converged
     ethr =  2.82E-08,  avg # of iterations =  6.5

[...]

     total energy              =    -125.55440050 Ry
     estimated scf accuracy    <       0.00000003 Ry

     iteration # 33     ecut=    30.00 Ry     beta= 0.10
     Davidson diagonalization with overlap
     ethr =  4.54E-11,  avg # of iterations =  2.7

[...]

     End of self-consistent calculation

[...]

          k = 0.0000-0.8665 0.0000 (  7884 PWs)   bands (ev):

[...]

          k =-0.4997-0.8665 0.0000 (  7880 PWs)   bands (ev):

   -13.5116 -13.4856 -13.3808 -13.3544 -10.1298 -10.0243  -9.9738  -9.8699
    -8.1031  -8.0615  -8.0445  -8.0024  -6.2565  -6.1923  -5.9454  -5.8900
    -3.9763  -3.9041  -3.8635  -3.7911  -3.5019  -3.4533  -3.2111  -3.1592
    -2.1492  -2.0512  -1.8007  -1.6970  -0.4739  -0.3905  -0.2373  -0.1574
     3.9093   4.0176   4.0921   4.2259

     the Fermi energy is    -0.2156 ev

!    total energy              =    -125.55450584 Ry
     estimated scf accuracy    <          5.9E-09 Ry
     smearing contrib. (-TS)   =      -0.00062444 Ry
     internal energy E=F+TS    =    -125.55388140 Ry

     The total energy is F=E-TS. E is the sum of the following terms:
     one-electron contribution =    -224.88567055 Ry
     hartree contribution      =     128.05927315 Ry
     xc contribution           =     -58.44051370 Ry
     ewald contribution        =      29.71302970 Ry

     convergence has been achieved in  33 iterations

     negative rho (up, down):  4.848E-03 0.000E+00

     Forces acting on atoms (cartesian axes, Ry/au):

     atom    1 type  1   force =    -0.03711712   -0.02230639    0.00000000
     atom    2 type  1   force =    -0.00311725   -0.03394497    0.00000000
     atom    3 type  1   force =    -0.07762710   -0.02323680    0.00000000
     atom    4 type  1   force =    -0.01230784    0.00964702    0.00000000
     atom    5 type  1   force =     0.00707390    0.01063160    0.00000000
     atom    6 type  1   force =    -0.04653472   -0.00937422    0.00000000
     atom    7 type  1   force =    -0.00196740   -0.00600074    0.00000000
     atom    8 type  1   force =    -0.07270914   -0.00866951    0.00000000
     atom    9 type  1   force =    -0.01070016    0.04164506    0.00000000
     atom   10 type  1   force =     0.00641223    0.04175884    0.00000000
     atom   11 type  1   force =     0.07783624   -0.02393533    0.00000000
     atom   12 type  1   force =     0.00241331   -0.03368052    0.00000000
     atom   13 type  1   force =     0.03371514   -0.02174261    0.00000000
     atom   14 type  1   force =    -0.00588600    0.01058769    0.00000000
     atom   15 type  1   force =     0.01531288    0.00968409    0.00000000
     atom   16 type  1   force =     0.07270962   -0.00881087    0.00000000
     atom   17 type  1   force =     0.00095809   -0.00603510    0.00000000
     atom   18 type  1   force =     0.04320108   -0.00925759    0.00000000
     atom   19 type  1   force =    -0.00520646    0.04160232    0.00000000
     atom   20 type  1   force =     0.01354072    0.04143804    0.00000000

     Total force =     0.000000     Total SCF correction =     0.000000

     Computing stress (Cartesian axis) and pressure

     negative rho (up, down):  4.848E-03 0.000E+00
          total   stress  (Ry/bohr**3)                   (kbar)     P=       -1.95
  -0.00000140   0.00000121   0.00000000           -0.21        0.18        0.00
   0.00000121  -0.00000592   0.00000000            0.18       -0.87        0.00
   0.00000000   0.00000000  -0.00003249            0.00        0.00       -4.78

     Writing output data file ./b12_22.save/

     General routines

     Parallel routines

   This run was terminated on:  15:22: 7  29Oct2021

   JOB DONE.