     Program PWSCF v.6.7MaX starts on 30Oct2021 at 14:33:47

     R & G space division:  proc/nbgrp/npool/nimage =       2
     Waiting for input...
     Reading input from standard input

     Current dimensions of program PWSCF are:
     Max number of different atomic species (ntypx) = 10
     Max number of k-points (npk) =  40000
     Max angular momentum in pseudopotentials (lmaxx) =  3
     file B.pbe-n-rrkjus_psl.1.0.0.UPF: wavefunction(s)  2S renormalized

     Subspace diagonalization in iterative solution of the eigenvalue problem:
     a serial algorithm will be used

     Found symmetry operation: I + (  0.5000 -0.5000  0.0000)
     This is a supercell, fractional translations are disabled

     bravais-lattice index     =            8
     lattice parameter (alat)  =      15.7658  a.u.
     unit-cell volume          =    1371.6372 (a.u.)^3
     number of atoms/cell      =            8
     number of atomic types    =            1
     number of electrons       =        24.00
     number of Kohn-Sham states=           16
     kinetic-energy cutoff     =      30.0000  Ry
     charge density cutoff     =     240.0000  Ry
     scf convergence threshold =      1.0E-06
     mixing beta               =       0.7000
     number of iterations used =            8  plain     mixing
     energy convergence thresh.=      1.0E-04
     force convergence thresh. =      1.0E-03
     press convergence thresh. =      5.0E-01
     Exchange-correlation= PBE
                           (   1   4   3   4   0   0   0)
     nstep                     =           50

     celldm(1)=  15.765780  celldm(2)=   0.350020  celldm(3)=   1.000000
     celldm(4)=   0.000000  celldm(5)=   0.000000  celldm(6)=   0.000000

     crystal axes: (cart. coord. in units of alat)
               a(1) = (   1.000000   0.000000   0.000000 )
               a(2) = (   0.000000   0.350020   0.000000 )
               a(3) = (   0.000000   0.000000   1.000000 )

     reciprocal axes: (cart. coord. in units 2 pi/alat)
               b(1) = (  1.000000  0.000000  0.000000 )
               b(2) = (  0.000000  2.856980  0.000000 )
               b(3) = (  0.000000  0.000000  1.000000 )

     PseudoPot. # 1 for B  read from file:
     ./B.pbe-n-rrkjus_psl.1.0.0.UPF
     MD5 check sum: 21bc42b8719306ef1fe0545c7dabf1c6
     Pseudo is Ultrasoft + core correction, Zval =  3.0
     Generated using &quot;atomic&quot; code by A. Dal Corso  v.6.3MaX
     Using radial grid of 1059 points,  4 beta functions with:
                l(1) =   0
                l(2) =   0
                l(3) =   1
                l(4) =   1
     Q(r) pseudized with 0 coefficients

     atomic species   valence    mass     pseudopotential
        B              3.00    10.81100     B ( 1.00)

      8 Sym. Ops., with inversion, found

   Cartesian axes

     site n.     atom                  positions (alat units)
         1           B   tau(   1) = (   0.2000000   0.0000000   0.5000000  )
         2           B   tau(   2) = (   0.4000000   0.0000000   0.5000000  )
         3           B   tau(   3) = (   0.6000000   0.0000000   0.5000000  )
         4           B   tau(   4) = (   0.8000000   0.0000000   0.5000000  )
         5           B   tau(   5) = (   0.1000000   0.1750100   0.5000000  )
         6           B   tau(   6) = (   0.3000000   0.1750100   0.5000000  )
         7           B   tau(   7) = (   0.7000000   0.1750100   0.5000000  )
         8           B   tau(   8) = (   0.9000000   0.1750100   0.5000000  )

     number of k points=     9  Marzari-Vanderbilt smearing, width (Ry)=  0.0050
                       cart. coord. in units 2pi/alat
        k(    1) = (   0.0000000   0.0000000   0.0000000), wk =   0.2500000
        k(    2) = (   0.0000000   0.7142449   0.0000000), wk =   0.5000000
        k(    3) = (   0.0000000  -1.4284898   0.0000000), wk =   0.2500000
        k(    4) = (  -0.5000000   0.0000000   0.0000000), wk =   0.1250000
        k(    5) = (  -0.5000000   0.7142449   0.0000000), wk =   0.2500000
        k(    6) = (  -0.5000000  -1.4284898   0.0000000), wk =   0.1250000
        k(    7) = (   0.0000000   0.0000000  -0.5000000), wk =   0.1250000
        k(    8) = (   0.0000000  -0.7142449  -0.5000000), wk =   0.2500000
        k(    9) = (   0.0000000   1.4284898  -0.5000000), wk =   0.1250000

     Check: negative core charge=   -0.000002

     Initial potential from superposition of free atoms

     starting charge   23.99774, renormalised to   24.00000
     Starting wfcs are   32 randomized atomic wfcs

     Self-consistent Calculation

     iteration #  1     ecut=    30.00 Ry     beta= 0.70
     Davidson diagonalization with overlap
     ethr =  1.00E-02,  avg # of iterations =  2.0

     negative rho (up, down):  4.668E-07 0.000E+00

     total energy              =     -50.08523324 Ry
     estimated scf accuracy    <       0.82861085 Ry

[...]

     End of self-consistent calculation

          k = 0.0000 0.0000 0.0000 (  3793 PWs)   bands (ev):

   -14.8332 -14.4354 -10.7487  -8.0123  -7.3580  -6.0282  -5.8181  -5.5908
    -4.9134  -2.9788  -1.8731  -0.2537   1.0093   1.9554   1.9903   2.6790

[...]

          k =-0.5000 0.0000 0.0000 (  3788 PWs)   bands (ev):

[...]

     the Fermi energy is    -1.0080 ev

!    total energy              =     -50.22730992 Ry
     estimated scf accuracy    <       0.00000031 Ry
     smearing contrib. (-TS)   =      -0.00028742 Ry
     internal energy E=F+TS    =     -50.22702250 Ry

     The total energy is F=E-TS. E is the sum of the following terms:
     one-electron contribution =    -118.87869097 Ry
     hartree contribution      =      64.82899971 Ry
     xc contribution           =     -23.27784533 Ry
     ewald contribution        =      27.10051409 Ry

     convergence has been achieved in   8 iterations

[...]

     Forces acting on atoms (cartesian axes, Ry/au):

     atom    1 type  1   force =     0.03646642    0.00000000    0.00000000
     atom    2 type  1   force =     0.08832082    0.00000000    0.00000000
     atom    3 type  1   force =    -0.08832082    0.00000000    0.00000000
     atom    4 type  1   force =    -0.03646642    0.00000000    0.00000000
     atom    5 type  1   force =    -0.08820317    0.00000000    0.00000000
     atom    6 type  1   force =    -0.03646395   -0.00000000    0.00000000
     atom    7 type  1   force =     0.03646395    0.00000000    0.00000000
     atom    8 type  1   force =     0.08820317    0.00000000    0.00000000

     Total force =     0.000000     Total SCF correction =     0.000000

     Computing stress (Cartesian axis) and pressure

     negative rho (up, down):  7.550E-05 0.000E+00
          total   stress  (Ry/bohr**3)                   (kbar)     P=       -3.29
  -0.00000918   0.00000000   0.00000000           -1.35        0.00        0.00
   0.00000000  -0.00000861   0.00000000            0.00       -1.27        0.00
   0.00000000   0.00000000  -0.00004933            0.00        0.00       -7.26

     BFGS Geometry Optimization
     Energy error            =      0.0E+00
     Gradient error          =      0.0E+00
     Cell gradient error     =      9.2E-06

     number of scf cycles    =   1
     number of bfgs steps    =   0

     enthalpy new            =     -50.2273099184 Ry

     new trust radius        =       0.0017007663 bohr
     new conv_thr            =       0.0000010000 Ry

     new unit-cell volume =   1371.02714 a.u.^3 (   203.16526 Ang^3 )
     density =      0.70690 g/cm^3

CELL_PARAMETERS (alat= 15.76578000)
   0.999770388   0.000000000   0.000000000
   0.000000000   0.349944681   0.000000000
   0.000000000   0.000000000   1.000000000

ATOMIC_POSITIONS (crystal)
B             0.2000000000        0.0000000000        0.5000000000    0   0   0
B             0.4000000000        0.0000000000        0.5000000000    0   0   0
B             0.6000000000        0.0000000000        0.5000000000    0   0   0
B             0.8000000000        0.0000000000        0.5000000000    0   0   0
B             0.1000000000        0.5000000000        0.5000000000    0   0   0
B             0.3000000000        0.5000000000        0.5000000000    0   0   0
B             0.7000000000        0.5000000000        0.5000000000    0   0   0
B             0.9000000000        0.5000000000        0.5000000000    0   0   0

     Writing output data file ./x3_11.save/
     NEW-OLD atomic charge density approx. for the potential

[...]

     negative rho (up, down):  7.559E-05 0.000E+00
     extrapolated charge   23.98932, renormalised to   24.00000

[...]

     Threshold (ethr) on eigenvalues was too large:
     Diagonalizing with lowered threshold

     Davidson diagonalization with overlap
     ethr =  2.52E-08,  avg # of iterations =  1.6

[...]

     Energy error            =      4.0E-06
     Gradient error          =      0.0E+00
     Cell gradient error     =      4.6E-06

     number of scf cycles    =   2
     number of bfgs steps    =   1

     enthalpy old            =     -50.2273099184 Ry
     enthalpy new            =     -50.2273139192 Ry

     CASE: enthalpy_new < enthalpy_old

     new trust radius        =       0.0015881026 bohr
     new conv_thr            =       0.0000000100 Ry

     new unit-cell volume =   1370.50311 a.u.^3 (   203.08761 Ang^3 )
     density =      0.70717 g/cm^3

[...]

ATOMIC_POSITIONS (crystal)
B             0.2000000000        0.0000000000        0.5000000000    0   0   0
B             0.4000000000        0.0000000000        0.5000000000    0   0   0
B             0.6000000000        0.0000000000        0.5000000000    0   0   0
B             0.8000000000        0.0000000000        0.5000000000    0   0   0
B             0.1000000000        0.5000000000        0.5000000000    0   0   0
B             0.3000000000        0.5000000000        0.5000000000    0   0   0
B             0.7000000000        0.5000000000        0.5000000000    0   0   0
B             0.9000000000        0.5000000000        0.5000000000    0   0   0

     Writing output data file ./x3_11.save/
     NEW-OLD atomic charge density approx. for the potential

[...]

     negative rho (up, down):  7.392E-05 0.000E+00
     extrapolated charge   23.99082, renormalised to   24.00000

[...]

     Threshold (ethr) on eigenvalues was too large:
     Diagonalizing with lowered threshold

     Davidson diagonalization with overlap
     ethr =  2.81E-08,  avg # of iterations =  1.6

[...]

     Energy error            =      1.5E-06
     Gradient error          =      0.0E+00
     Cell gradient error     =      6.8E-07

     bfgs converged in   3 scf cycles and   2 bfgs steps
     (criteria: energy <  1.0E-04 Ry, force <  1.0E-03Ry/Bohr, cell <  5.0E-01kbar)

     End of BFGS Geometry Optimization

     Final enthalpy =     -50.2273154455 Ry

     File ./x3_11.bfgs deleted, as requested
Begin final coordinates
     new unit-cell volume =   1370.50311 a.u.^3 (   203.08761 Ang^3 )
     density =      0.70717 g/cm^3

CELL_PARAMETERS (alat= 15.76578000)
   0.999555987   0.000000000   0.000000000
   0.000000000   0.349885958   0.000000000
   0.000000000   0.000000000   1.000000000

ATOMIC_POSITIONS (crystal)
B             0.2000000000        0.0000000000        0.5000000000    0   0   0
B             0.4000000000        0.0000000000        0.5000000000    0   0   0
B             0.6000000000        0.0000000000        0.5000000000    0   0   0
B             0.8000000000        0.0000000000        0.5000000000    0   0   0
B             0.1000000000        0.5000000000        0.5000000000    0   0   0
B             0.3000000000        0.5000000000        0.5000000000    0   0   0
B             0.7000000000        0.5000000000        0.5000000000    0   0   0
B             0.9000000000        0.5000000000        0.5000000000    0   0   0
End final coordinates

     Writing output data file ./x3_11.save/

     Final scf calculation at the relaxed structure.
     The G-vectors are recalculated for the final unit cell
     Results may differ from those at the preceding step.

     bravais-lattice index     =            8
     lattice parameter (alat)  =      15.7658  a.u.
     unit-cell volume          =    1370.5031 (a.u.)^3
     number of atoms/cell      =            8
     number of atomic types    =            1
     number of electrons       =        24.00
     number of Kohn-Sham states=           16
     kinetic-energy cutoff     =      30.0000  Ry
     charge density cutoff     =     240.0000  Ry
     scf convergence threshold =      1.0E-08
     mixing beta               =       0.7000
     number of iterations used =            8  plain     mixing
     press convergence thresh. =      5.0E-01
     Exchange-correlation= PBE
                           (   1   4   3   4   0   0   0)

     celldm(1)=  15.765780  celldm(2)=   0.350020  celldm(3)=   1.000000
     celldm(4)=   0.000000  celldm(5)=   0.000000  celldm(6)=   0.000000

     crystal axes: (cart. coord. in units of alat)
               a(1) = (   0.999556   0.000000   0.000000 )
               a(2) = (   0.000000   0.349886   0.000000 )
               a(3) = (   0.000000   0.000000   1.000000 )

     reciprocal axes: (cart. coord. in units 2 pi/alat)
               b(1) = (  1.000444  0.000000  0.000000 )
               b(2) = (  0.000000  2.858074  0.000000 )
               b(3) = (  0.000000  0.000000  1.000000 )

     PseudoPot. # 1 for B  read from file:
     ./B.pbe-n-rrkjus_psl.1.0.0.UPF
     MD5 check sum: 21bc42b8719306ef1fe0545c7dabf1c6
     Pseudo is Ultrasoft + core correction, Zval =  3.0
     Generated using &quot;atomic&quot; code by A. Dal Corso  v.6.3MaX
     Using radial grid of 1059 points,  4 beta functions with:
                l(1) =   0
                l(2) =   0
                l(3) =   1
                l(4) =   1
     Q(r) pseudized with 0 coefficients

     atomic species   valence    mass     pseudopotential
        B              3.00    10.81100     B ( 1.00)

      8 Sym. Ops., with inversion, found

   Cartesian axes

     site n.     atom                  positions (alat units)
         1           B   tau(   1) = (   0.1999112   0.0000000   0.5000000  )
         2           B   tau(   2) = (   0.3998224   0.0000000   0.5000000  )
         3           B   tau(   3) = (   0.5997336   0.0000000   0.5000000  )
         4           B   tau(   4) = (   0.7996448   0.0000000   0.5000000  )
         5           B   tau(   5) = (   0.0999556   0.1749430   0.5000000  )
         6           B   tau(   6) = (   0.2998668   0.1749430   0.5000000  )
         7           B   tau(   7) = (   0.6996892   0.1749430   0.5000000  )
         8           B   tau(   8) = (   0.8996004   0.1749430   0.5000000  )

     number of k points=     9  Marzari-Vanderbilt smearing, width (Ry)=  0.0050
                       cart. coord. in units 2pi/alat
        k(    1) = (   0.0000000   0.0000000   0.0000000), wk =   0.2500000
        k(    2) = (   0.0000000   0.7145185   0.0000000), wk =   0.5000000
        k(    3) = (   0.0000000  -1.4290371   0.0000000), wk =   0.2500000
        k(    4) = (  -0.5002221   0.0000000   0.0000000), wk =   0.1250000
        k(    5) = (  -0.5002221   0.7145185   0.0000000), wk =   0.2500000
        k(    6) = (  -0.5002221  -1.4290371   0.0000000), wk =   0.1250000
        k(    7) = (   0.0000000   0.0000000  -0.5000000), wk =   0.1250000
        k(    8) = (   0.0000000  -0.7145185  -0.5000000), wk =   0.2500000
        k(    9) = (   0.0000000   1.4290371  -0.5000000), wk =   0.1250000

     Check: negative core charge=   -0.000002

     Initial potential from superposition of free atoms

     starting charge   23.99774, renormalised to   24.00000
     Starting wfcs are   32 randomized atomic wfcs

     Self-consistent Calculation

     iteration #  1     ecut=    30.00 Ry     beta= 0.70
     Davidson diagonalization with overlap
     c_bands:  1 eigenvalues not converged
     c_bands:  1 eigenvalues not converged
     ethr =  1.00E-06,  avg # of iterations = 13.3

[...]

     total energy              =     -50.22721571 Ry
     estimated scf accuracy    <       0.00000002 Ry

     iteration # 10     ecut=    30.00 Ry     beta= 0.70
     Davidson diagonalization with overlap
     ethr =  9.42E-11,  avg # of iterations =  3.1

[...]

     End of self-consistent calculation

[...]

          k =-0.5002-1.4290 0.0000 (  3812 PWs)   bands (ev):

[...]

          k = 0.0000 1.4290-0.5000 (  3812 PWs)   bands (ev):

   -12.1103 -12.1096 -11.7936 -11.7928  -7.3383  -7.3381  -5.0144  -5.0137
    -4.7969  -4.7965  -1.8570  -1.8568  -0.7425  -0.7424   2.0572   2.0574

     the Fermi energy is    -1.0072 ev

!    total energy              =     -50.22721572 Ry
     estimated scf accuracy    <          6.2E-09 Ry
     smearing contrib. (-TS)   =      -0.00028572 Ry
     internal energy E=F+TS    =     -50.22693000 Ry

     The total energy is F=E-TS. E is the sum of the following terms:
     one-electron contribution =    -118.98862961 Ry
     hartree contribution      =      64.88886503 Ry
     xc contribution           =     -23.28404784 Ry
     ewald contribution        =      27.15688243 Ry

     convergence has been achieved in  10 iterations

     negative rho (up, down):  7.657E-05 0.000E+00

     Forces acting on atoms (cartesian axes, Ry/au):

     atom    1 type  1   force =     0.03625554    0.00000000    0.00000000
     atom    2 type  1   force =     0.08864115    0.00000000    0.00000000
     atom    3 type  1   force =    -0.08864115   -0.00000000    0.00000000
     atom    4 type  1   force =    -0.03625554    0.00000000    0.00000000
     atom    5 type  1   force =    -0.08856203    0.00000000    0.00000000
     atom    6 type  1   force =    -0.03632665    0.00000000    0.00000000
     atom    7 type  1   force =     0.03632665   -0.00000000    0.00000000
     atom    8 type  1   force =     0.08856203    0.00000000    0.00000000

     Total force =     0.000000     Total SCF correction =     0.000000

     Computing stress (Cartesian axis) and pressure

     negative rho (up, down):  7.657E-05 0.000E+00
          total   stress  (Ry/bohr**3)                   (kbar)     P=       -2.45
  -0.00000079   0.00000000   0.00000000           -0.12        0.00        0.00
   0.00000000  -0.00000083   0.00000000            0.00       -0.12        0.00
   0.00000000   0.00000000  -0.00004833            0.00        0.00       -7.11

     Writing output data file ./x3_11.save/

     General routines

     Parallel routines

   This run was terminated on:  14:34:42  30Oct2021

   JOB DONE.